data/rand/rand_065.gr
p tdp 15 55
1 2
1 3
1 5
1 6
1 10
1 11
1 14
2 7
2 8
2 10
2 11
2 12
2 14
2 15
3 7
3 8
3 9
3 10
3 13
3 15
4 7
4 8
4 12
4 13
4 14
4 15
5 6
5 7
5 8
5 10
5 14
5 15
6 8
6 9
6 10
6 11
6 12
6 13
6 14
7 11
7 14
7 15
8 9
8 11
9 10
9 11
9 13
10 11
10 12
10 14
10 15
11 15
12 13
12 14
12 15
