solutions/best/rand/rand_065.sol
11
0
1
9
6
14
13
2
7
6
8
9
14
15
4
10
